300
125 125
1 100 988
2 100 37
3 100 444
4 100 362
5 100 477
6 100 996
7 99 801
8 98 542
9 98 976
10 98 983
11 98 583
12 98 685
13 97 602
14 96 48
15 96 922
16 95 919
17 95 166
18 94 995
19 94 441
20 94 142
21 93 126
22 93 882
23 93 509
24 93 772
25 92 19
26 92 52
27 92 734
28 91 642
29 91 611
30 90 859
31 90 220
32 90 507
33 90 515
34 89 48
35 89 740
36 89 273
37 89 869
38 89 768
39 88 732
40 88 358
41 88 793
42 88 822
43 88 538
44 87 625
45 87 108
46 87 566
47 87 130
48 86 174
49 86 967
50 86 253
51 86 180
52 85 333
53 84 643
54 84 921
55 84 449
56 84 56
57 83 374
58 83 255
59 83 184
60 82 716
61 82 677
62 82 554
63 81 929
64 81 561
65 81 22
66 81 907
67 80 755
68 80 256
69 80 974
70 80 920
71 80 497
72 79 93
73 79 819
74 79 256
75 79 438
76 79 277
77 79 148
78 78 916
79 78 97
80 78 299
81 78 336
82 78 43
83 78 414
84 78 61
85 77 891
86 77 848
87 77 966
88 77 816
89 77 351
90 77 185
91 76 370
92 76 947
93 75 714
94 75 216
95 75 726
96 75 970
97 74 676
98 74 922
99 74 17
100 74 666
101 73 914
102 72 988
103 72 986
104 72 335
105 72 161
106 72 400
107 71 401
108 71 152
109 71 758
110 70 384
111 70 931
112 70 212
113 69 60
114 69 432
115 69 454
116 68 604
117 68 883
118 68 195
119 68 364
120 66 874
121 66 875
122 66 359
123 66 565
124 66 3
125 66 885
126 66 910
127 66 637
128 65 620
129 65 626
130 65 770
131 65 257
132 65 825
133 65 394
134 64 639
135 64 991
136 64 413
137 64 996
138 64 618
139 63 149
140 63 855
141 63 593
142 63 660
143 63 963
144 63 211
145 62 422
146 62 235
147 62 679
148 62 152
149 62 943
150 62 309
151 61 209
152 61 844
153 61 155
154 61 454
155 61 264
156 60 61
157 60 829
158 59 850
159 59 478
160 59 917
161 58 241
162 58 433
163 57 167
164 57 258
165 57 748
166 56 483
167 56 888
168 56 77
169 55 218
170 55 583
171 54 21
172 54 802
173 53 572
174 53 630
175 53 490
176 53 141
177 52 360
178 52 584
179 51 195
180 51 513
181 50 861
182 50 839
183 49 660
184 49 623
185 49 527
186 49 208
187 48 956
188 48 733
189 48 97
190 48 860
191 48 936
192 47 69
193 47 180
194 47 391
195 46 895
196 46 72
197 46 207
198 45 551
199 45 659
200 45 294
201 45 881
202 44 62
203 44 321
204 44 308
205 44 55
206 44 832
207 44 170
208 43 966
209 43 93
210 42 896
211 42 464
212 42 186
213 41 966
214 41 440
215 41 878
216 40 110
217 40 542
218 40 434
219 39 344
220 39 380
221 39 734
222 38 386
223 38 664
224 38 536
225 38 13
226 37 793
227 37 257
228 36 374
229 36 795
230 36 794
231 35 644
232 35 407
233 35 45
234 35 101
235 35 273
236 34 388
237 34 77
238 34 101
239 33 638
240 33 949
241 33 957
242 33 217
243 32 153
244 32 60
245 32 577
246 31 629
247 30 760
248 30 634
249 29 916
250 29 763
251 29 173
252 29 303
253 28 44
254 28 278
255 28 484
256 28 848
257 27 452
258 27 550
259 26 18
260 26 495
261 26 760
262 26 254
263 25 236
264 25 3
265 25 136
266 23 130
267 23 432
268 23 95
269 22 902
270 21 544
271 21 825
272 20 976
273 20 730
274 20 222
275 20 318
276 20 828
277 20 344
278 19 895
279 19 744
280 19 221
281 18 292
282 18 727
283 18 976
284 18 868
285 18 754
286 17 310
287 17 71
288 17 52
289 16 834
290 16 937
291 16 31
292 16 283
293 16 349
294 16 454
295 16 545
296 14 536
297 14 11
298 12 420
299 12 764
300 12 247
